data/instances/vrp_files/train_5.vrp
NAME : 5
COMMENT : Generated instance No. 5
TYPE : CVRP
DIMENSION : 21
EDGE_WEIGHT_TYPE : EUC_2D
CAPACITY : 30
NODE_COORD_SECTION
 1 763 806
 2 842 194
 3 411 699
 4 138 132
 5 969 714
 6 41 398
 7 433 744
 8 250 184
 9 80 428
 10 688 58
 11 915 442
 12 239 93
 13 182 934
 14 638 516
 15 657 435
 16 730 47
 17 566 158
 18 120 341
 19 91 94
 20 311 979
 21 175 17
DEMAND_SECTION
1 0
2 4
3 1
4 5
5 7
6 10
7 10
8 6
9 5
10 4
11 2
12 4
13 10
14 10
15 3
16 10
17 1
18 8
19 5
20 4
21 8
DEPOT_SECTION
 1
 -1
EOF